CMPL model generation - running

CMPL version: 1.11.0
Authors: Thomas Schleiff, Mike Steglich
Distributed under the GPLv3 

create model instance ...
write model instance ...
CMPL model generation - finished

Solver - running


Welcome to IBM(R) ILOG(R) CPLEX(R) Interactive Optimizer 12.7.1.0
  with Simplex, Mixed Integer & Barrier Optimizers
5725-A06 5725-A29 5724-Y48 5724-Y49 5724-Y54 5724-Y55 5655-Y21
Copyright IBM Corp. 1988, 2017.  All Rights Reserved.

Type 'help' for a list of available commands.
Type 'help' followed by a command name for more
information on commands.

CPLEX> Specified objective sense: MINIMIZE
Selected objective  name:  line[1]
Selected RHS        name:  RHS
Selected bound      name:  BOUND
Problem '/tmp/cmpl.T23689.mps' read.
Read time = 0.08 sec. (10.11 ticks)
CPLEX> CPXPARAM_Read_APIEncoding                        "UTF-8"
Tried aggregator 3 times.
MIP Presolve eliminated 24074 rows and 37712 columns.
MIP Presolve modified 425 coefficients.
Aggregator did 711 substitutions.
Reduced MIP has 3137 rows, 4032 columns, and 11942 nonzeros.
Reduced MIP has 3822 binaries, 0 generals, 0 SOSs, and 0 indicators.
Presolve time = 0.06 sec. (50.04 ticks)
Found incumbent of value 453.687801 after 0.10 sec. (75.06 ticks)
Probing fixed 8 vars, tightened 0 bounds.
Probing time = 0.01 sec. (5.18 ticks)
Tried aggregator 1 time.
MIP Presolve eliminated 0 rows and 8 columns.
MIP Presolve modified 31 coefficients.
Reduced MIP has 3137 rows, 4024 columns, and 11926 nonzeros.
Reduced MIP has 4024 binaries, 0 generals, 0 SOSs, and 0 indicators.
Presolve time = 0.01 sec. (10.10 ticks)
Probing time = 0.01 sec. (2.83 ticks)
Clique table members: 7319.
MIP emphasis: balance optimality and feasibility.
MIP search method: dynamic search.
Parallel mode: none, using 1 thread.
Root relaxation solution time = 0.01 sec. (5.53 ticks)

        Nodes                                         Cuts/
   Node  Left     Objective  IInf  Best Integer    Best Bound    ItCnt     Gap

*     0+    0                          453.6878      -32.0558           107.07%
      0     0       82.7605    13      453.6878       82.7605      112   81.76%
*     0+    0                          104.4808       82.7605            20.79%
*     0+    0                           83.0577       82.7605             0.36%
*     0     0      integral     0       83.0351       Cuts: 4      113    0.00%
      0     0        cutoff             83.0351       83.0351      113    0.00%
Elapsed time = 0.18 sec. (124.99 ticks, tree = 0.01 MB, solutions = 4)

GUB cover cuts applied:  1
Clique cuts applied:  1
Cover cuts applied:  1
Gomory fractional cuts applied:  1

Root node processing (before b&c):
  Real time             =    0.18 sec. (127.10 ticks)
Sequential b&c:
  Real time             =    0.00 sec. (0.00 ticks)
                          ------------
Total (root+branch&cut) =    0.18 sec. (127.10 ticks)

Solution pool: 4 solutions saved.

MIP - Integer optimal solution:  Objective =  8.3035148000e+01
Solution time =    0.18 sec.  Iterations = 113  Nodes = 0
Deterministic time = 127.22 ticks  (704.94 ticks/sec)

CPLEX> Incumbent solution written to file '/tmp/cmpl.T23689.gsol'.
CPLEX> 
CMPL: Time used for model generation: 1 seconds
CMPL: Time used for solving the model: 1 seconds


Solution written to ASCII file: results/output_generated_conf_0.2/2016-10-03-5/fair-nonlinear.sol

Solver - finished
